0 16 26 45 45 31 50 34 5 15 6 29 39 9 20
16 0 1 48 3 40 33 16 43 37 32 43 32 5 41
26 1 0 5 34 13 44 17 3 15 27 46 22 29 18
45 48 5 0 2 44 16 48 48 42 22 16 21 17 44
45 3 34 2 0 10 39 10 22 46 48 7 13 49 4
31 40 13 44 10 0 41 45 30 49 39 47 37 18 42
50 33 44 16 39 41 0 35 14 21 44 7 9 25 9
34 16 17 48 10 45 35 0 33 7 45 26 45 29 48
5 43 3 48 22 30 14 33 0 15 33 28 50 29 30
15 37 15 42 46 49 21 7 15 0 42 31 17 5 19
6 32 27 22 48 39 44 45 33 42 0 30 17 10 47
29 43 46 16 7 47 7 26 28 31 30 0 4 29 29
39 32 22 21 13 37 9 45 50 17 17 4 0 33 1
9 5 29 17 49 18 25 29 29 5 10 29 33 0 34
20 41 18 44 4 42 9 48 30 19 47 29 1 34 0
